NAME          COPTPROB
OBJSENSE
  MIN
ROWS
 N  __OBJ___
 L  C40     
 L  C88     
 L  C150    
 L  C175    
COLUMNS
    MARKER    'MARKER'                 'INTORG'
    x51       __OBJ___  487
    x51       C40       -1
    x85       __OBJ___  761
    x85       C88       -1
    x85       C150      -1
    x109      __OBJ___  229
    x109      C88       -1
    x146      __OBJ___  251
    x146      C88       -1
    x146      C175      -1
    x195      __OBJ___  591
    x195      C40       -1
    x195      C175      -1
    x322      __OBJ___  669
    x322      C40       -1
    x322      C150      -1
    MARKER    'MARKER'                 'INTEND'
RHS
    RHS       __OBJ___  -28401
    RHS       C40       -1
    RHS       C88       -1
    RHS       C150      -1
    RHS       C175      -1
BOUNDS
 UP BOUND     x51       1
 UP BOUND     x85       1
 UP BOUND     x109      1
 UP BOUND     x146      1
 UP BOUND     x195      1
 UP BOUND     x322      1
ENDATA
